507948
507948
507948
495417
495417
495417
471663
471663
471663
471663
471663
471663
452268
445740
441341
437091
437091
437091
427624
427624
427624
422847
416978
416642
408487
408487
408487
400082
400082
400082
400082
400082
400082
400082
393145
393145
388540
388540
388540
377644
376274
376274
373699
370713
362896
362896
362329
362329
361061
361061
361061
361061
360249
357591
354980
351739
351739
351739
351739
349139
349139
349139
349139
349139
349139
347111
346313
346313
345897
343504
340985
337762
337762
337762
337762
337762
337762
337762
331885
330044
330044
330044
330044
330044
330044
329062
329062
329062
329062
329062
329062
315318
315318
303412
303412
303412
303412
303412
303412
303412
